N = 6;
H = 6;
T = 2;

avail = array3d(1..N, 1..H, 1..T, [9, 10, 8, 4, 8, 7, 2, 5, 10, 3, 2, 7, 2, 2, 1, 4, 8, 7, 9, 9, 7, 7, 8, 5, 5, 7, 6, 8, 6, 1, 5, 2, 5, 0, 0, 7, 0, 10, 8, 5, 5, 6, 10, 5, 10, 4, 2, 8, 4, 4, 3, 5, 4, 0, 9, 1, 2, 0, 8, 0, 9, 8, 1, 6, 3, 10, 5, 8, 2, 0, 0, 6]);

r = array2d(1..H, 1..T, [2, 2, 2, 1, 1, 2, 2, 2, 2, 2, 3, 0]);
